NAME : D493A
TYPE : PDTSP
DIMENSION : 493
EDGE_WEIGHT_TYPE : EUC_2D
NODE_COORD_SECTION
1 0 0
2 1100 1600
3 1400 1500
4 1100 1800
5 1200 1800
6 1200 1900
7 1200 2000
8 1300 2000
9 1200 2000
10 1200 2000
11 1200 2100
12 1400 2200
13 1700 2100
14 1700 2200
15 1800 2300
16 1800 2300
17 1700 2400
18 1700 2400
19 1600 2400
20 1800 2500
21 2300 1800
22 2200 1400
23 2200 1300
24 2200 1300
25 2600 1100
26 2500 1200
27 2300 950
28 2200 1000
29 2200 1100
30 2200 1100
31 2200 1200
32 2000 1100
33 2000 1300
34 1900 1300
35 1900 1400
36 1800 1400
37 1800 1400
38 1800 1400
39 1800 1300
40 1700 1300
41 2000 1600
42 2000 1700
43 2000 1800
44 2000 1800
45 2100 1800
46 2000 1800
47 2000 1900
48 1800 1800
49 1800 1800
50 1800 1900
51 1800 1700
52 1700 1800
53 1900 2200
54 2000 2100
55 2000 2200
56 1900 2200
57 1900 2200
58 2000 2300
59 2000 2300
60 2100 2400
61 1900 2400
62 1900 2500
63 1900 2500
64 2100 2500
65 2200 2100
66 1600 2700
67 1700 2700
68 1800 2700
69 1700 2800
70 1800 2800
71 1900 3100
72 1900 3000
73 1900 3000
74 1900 3000
75 2200 3000
76 2200 2900
77 2200 2900
78 1900 2900
79 2200 2800
80 1900 2800
81 1900 2800
82 2000 2800
83 1900 2700
84 2000 2600
85 2100 2600
86 2100 2600
87 2200 2500
88 2600 3000
89 2600 3000
90 2500 3000
91 2900 3000
92 2900 3000
93 2900 3000
94 3000 3000
95 2800 2800
96 2200 2800
97 2600 2800
98 2600 2800
99 2500 2800
100 2700 2800
101 2600 2700
102 2900 2700
103 3200 2700
104 3100 2700
105 2800 2700
106 2500 2700
107 2600 2600
108 2700 2600
109 3400 2600
110 2900 2600
111 3100 2600
112 2700 2600
113 2700 2500
114 2900 2500
115 2800 2500
116 2300 2500
117 2600 2500
118 3200 2500
119 2700 2500
120 2900 2400
121 2500 2400
122 2400 2400
123 2900 2400
124 3100 2400
125 2600 2400
126 2500 2400
127 2800 2400
128 2300 2400
129 2600 2300
130 2900 2300
131 2800 2300
132 2600 2300
133 2800 2300
134 2900 2300
135 2800 2300
136 2700 2300
137 2800 2300
138 2900 2300
139 2300 2200
140 2900 2200
141 3100 2200
142 2900 2200
143 3400 2200
144 2900 2200
145 2600 2200
146 2700 2200
147 2800 2100
148 2800 2100
149 2400 2100
150 2900 2100
151 3400 2100
152 2600 2100
153 3100 2100
154 2600 2100
155 2500 2100
156 2700 2100
157 3400 2000
158 3400 2000
159 2600 2000
160 2700 2000
161 2500 2000
162 2700 2000
163 2500 2000
164 3100 2000
165 3400 2000
166 2700 2000
167 2700 2000
168 3200 2000
169 3000 1900
170 2500 1900
171 2500 1900
172 2900 1900
173 2500 1900
174 2600 1900
175 2500 1900
176 2600 1900
177 3400 1900
178 3600 1900
179 2800 1900
180 2700 1900
181 2500 1900
182 3000 1900
183 3500 1900
184 3100 1900
185 2800 1900
186 2700 1900
187 3200 1900
188 3300 1900
189 2700 1800
190 2500 1800
191 3300 1800
192 3300 1800
193 3400 1800
194 2700 1800
195 3400 1800
196 3500 1800
197 2900 1800
198 2800 1800
199 3400 1800
200 3300 1800
201 2500 1800
202 3100 1800
203 3200 1800
204 3300 1800
205 3300 1800
206 3000 1800
207 3200 1700
208 3000 1700
209 2600 1700
210 2500 1700
211 3000 1700
212 3100 1700
213 3100 1700
214 3600 1700
215 2800 1700
216 2600 1700
217 3100 1700
218 2900 1700
219 3100 1700
220 3200 1700
221 3200 1700
222 2700 1700
223 3000 1700
224 2400 1600
225 2500 1600
226 3600 1600
227 3100 1600
228 3100 1600
229 3100 1600
230 2800 1600
231 2900 1600
232 3300 1600
233 3100 1600
234 3000 1600
235 2400 1600
236 2800 1600
237 3300 1600
238 3100 1600
239 3400 1600
240 2600 1600
241 2900 1500
242 3000 1500
243 3100 1500
244 3100 1500
245 3100 1500
246 3200 1500
247 3200 1500
248 3200 1500
249 3200 1500
250 3300 1500
251 3300 1500
252 3300 1500
253 3300 1500
254 3400 1500
255 2700 1500
256 3100 1500
257 3100 1500
258 3100 1500
259 3200 1500
260 3200 1500
261 3200 1500
262 3200 1500
263 3300 1500
264 3300 1500
265 3300 1500
266 2400 1500
267 3000 1500
268 2700 1500
269 2400 1500
270 3400 1500
271 3000 1500
272 2800 1500
273 3000 1500
274 3400 1500
275 3400 1500
276 2800 1500
277 2600 1500
278 3000 1500
279 3100 1500
280 3100 1500
281 3200 1500
282 3200 1500
283 3200 1500
284 3200 1500
285 3300 1500
286 3300 1500
287 3300 1500
288 3400 1400
289 3100 1400
290 3100 1400
291 3100 1400
292 3200 1400
293 3200 1400
294 3200 1400
295 3200 1400
296 3300 1400
297 2900 1400
298 2700 1400
299 3000 1400
300 3300 1400
301 2400 1400
302 3400 1400
303 3300 1400
304 3000 1400
305 2600 1400
306 3100 1400
307 3400 1400
308 3300 1400
309 3100 1400
310 3000 1400
311 3300 1400
312 3200 1400
313 3200 1400
314 3100 1400
315 3400 1400
316 3400 1400
317 3000 1400
318 3000 1400
319 3300 1400
320 3400 1400
321 3100 1400
322 3200 1400
323 3000 1400
324 3300 1400
325 2900 1400
326 2900 1400
327 3100 1400
328 3400 1400
329 3100 1400
330 3000 1400
331 3300 1400
332 3400 1400
333 3100 1400
334 2800 1400
335 3600 1400
336 3300 1400
337 3000 1400
338 3100 1400
339 3400 1400
340 3300 1400
341 2900 1400
342 2800 1400
343 3000 1300
344 3300 1300
345 2900 1300
346 3100 1300
347 3400 1300
348 3500 1300
349 3000 1300
350 3000 1300
351 3300 1300
352 2900 1300
353 3100 1300
354 3400 1300
355 3300 1300
356 3200 1300
357 3000 1300
358 3000 1300
359 3200 1300
360 3100 1300
361 3400 1300
362 3600 1300
363 3300 1300
364 3000 1300
365 3100 1300
366 3400 1300
367 3300 1300
368 3000 1300
369 2800 1300
370 2900 1300
371 2900 1300
372 3500 1300
373 3400 1300
374 3100 1300
375 3200 1300
376 3300 1300
377 3000 1300
378 3100 1300
379 3400 1300
380 3300 1300
381 3000 1300
382 2800 1300
383 3100 1300
384 3400 1300
385 2600 1300
386 3100 1300
387 3300 1300
388 3300 1300
389 3000 1300
390 2900 1300
391 2800 1300
392 2600 1300
393 3100 1300
394 3400 1300
395 3500 1300
396 3000 1200
397 2900 1200
398 2800 1200
399 2500 1200
400 3100 1200
401 3400 1200
402 3300 1200
403 3300 1200
404 3200 1200
405 3200 1200
406 3200 1200
407 3200 1200
408 3100 1200
409 3000 1200
410 3300 1200
411 2900 1200
412 3100 1200
413 3100 1200
414 3200 1200
415 3200 1200
416 3200 1200
417 3200 1200
418 3300 1200
419 3300 1200
420 3300 1200
421 3400 1200
422 2600 1200
423 2600 1200
424 3000 1200
425 3000 1200
426 3400 1200
427 3500 1200
428 3500 1200
429 2700 1200
430 3400 1200
431 2900 1200
432 3000 1200
433 3100 1200
434 3100 1200
435 3100 1200
436 3200 1200
437 3200 1200
438 3200 1200
439 3200 1200
440 3300 1200
441 3300 1200
442 3300 1200
443 2900 1100
444 3100 1100
445 3100 1100
446 3100 1100
447 3100 1100
448 3200 1100
449 3200 1100
450 3200 1100
451 3200 1100
452 3300 1100
453 3300 1100
454 3300 1100
455 3300 1100
456 3400 1100
457 2700 1100
458 2900 1100
459 3100 1100
460 3000 1100
461 2900 1100
462 2800 1000
463 2900 1000
464 2800 1000
465 2900 1000
466 2900 1000
467 2900 830
468 3100 930
469 3100 950
470 3000 960
471 3100 970
472 3100 990
473 3200 980
474 3400 880
475 3500 920
476 3500 1000
477 3400 1000
478 3400 1000
479 3500 1000
480 3400 1100
481 3300 1100
482 3500 1100
483 3200 1100
484 3600 1100
485 3600 1100
486 3400 1100
487 3500 1100
488 3500 1200
489 3400 1200
490 3500 1200
491 3700 1300
492 3700 1300
493 3700 1000
PICKUP_AND_DELIVERY_SECTION
1 0 0 0 0 0 0
2 0 0 0 0 0 8
3 0 0 0 0 52 0
4 0 0 0 0 6 0
5 0 0 0 0 0 9
6 0 0 0 0 0 4
7 0 0 0 0 11 0
8 0 0 0 0 2 0
9 0 0 0 0 5 0
10 0 0 0 0 13 0
11 0 0 0 0 0 7
12 0 0 0 0 19 0
13 0 0 0 0 0 10
14 0 0 0 0 55 0
15 0 0 0 0 0 50
16 0 0 0 0 0 20
17 0 0 0 0 18 0
18 0 0 0 0 0 17
19 0 0 0 0 0 12
20 0 0 0 0 16 0
21 0 0 0 0 32 0
22 0 0 0 0 0 41
23 0 0 0 0 0 31
24 0 0 0 0 0 35
25 0 0 0 0 0 385
26 0 0 0 0 0 27
27 0 0 0 0 26 0
28 0 0 0 0 40 0
29 0 0 0 0 0 30
30 0 0 0 0 29 0
31 0 0 0 0 23 0
32 0 0 0 0 0 21
33 0 0 0 0 305 0
34 0 0 0 0 36 0
35 0 0 0 0 24 0
36 0 0 0 0 0 34
37 0 0 0 0 0 38
38 0 0 0 0 37 0
39 0 0 0 0 0 362
40 0 0 0 0 0 28
41 0 0 0 0 22 0
42 0 0 0 0 46 0
43 0 0 0 0 0 48
44 0 0 0 0 51 0
45 0 0 0 0 176 0
46 0 0 0 0 0 42
47 0 0 0 0 0 49
48 0 0 0 0 43 0
49 0 0 0 0 47 0
50 0 0 0 0 15 0
51 0 0 0 0 0 44
52 0 0 0 0 0 3
53 0 0 0 0 0 56
54 0 0 0 0 0 57
55 0 0 0 0 0 14
56 0 0 0 0 53 0
57 0 0 0 0 54 0
58 0 0 0 0 59 0
59 0 0 0 0 0 58
60 0 0 0 0 85 0
61 0 0 0 0 0 62
62 0 0 0 0 61 0
63 0 0 0 0 0 84
64 0 0 0 0 65 0
65 0 0 0 0 0 64
66 0 0 0 0 82 0
67 0 0 0 0 0 88
68 0 0 0 0 0 76
69 0 0 0 0 81 0
70 0 0 0 0 83 0
71 0 0 0 0 72 0
72 0 0 0 0 0 71
73 0 0 0 0 80 0
74 0 0 0 0 0 75
75 0 0 0 0 74 0
76 0 0 0 0 68 0
77 0 0 0 0 97 0
78 0 0 0 0 79 0
79 0 0 0 0 0 78
80 0 0 0 0 0 73
81 0 0 0 0 0 69
82 0 0 0 0 0 66
83 0 0 0 0 0 70
84 0 0 0 0 63 0
85 0 0 0 0 0 60
86 0 0 0 0 0 116
87 0 0 0 0 0 128
88 0 0 0 0 67 0
89 0 0 0 0 90 0
90 0 0 0 0 0 89
91 0 0 0 0 100 0
92 0 0 0 0 0 93
93 0 0 0 0 92 0
94 0 0 0 0 111 0
95 0 0 0 0 0 108
96 0 0 0 0 106 0
97 0 0 0 0 0 77
98 0 0 0 0 101 0
99 0 0 0 0 140 0
100 0 0 0 0 0 91
101 0 0 0 0 0 98
102 0 0 0 0 110 0
103 0 0 0 0 109 0
104 0 0 0 0 0 118
105 0 0 0 0 0 113
106 0 0 0 0 0 96
107 0 0 0 0 0 125
108 0 0 0 0 95 0
109 0 0 0 0 0 103
110 0 0 0 0 0 102
111 0 0 0 0 0 94
112 0 0 0 0 115 0
113 0 0 0 0 105 0
114 0 0 0 0 120 0
115 0 0 0 0 0 112
116 0 0 0 0 86 0
117 0 0 0 0 141 0
118 0 0 0 0 104 0
119 0 0 0 0 127 0
120 0 0 0 0 0 114
121 0 0 0 0 136 0
122 0 0 0 0 0 126
123 0 0 0 0 133 0
124 0 0 0 0 138 0
125 0 0 0 0 107 0
126 0 0 0 0 122 0
127 0 0 0 0 0 119
128 0 0 0 0 87 0
129 0 0 0 0 132 0
130 0 0 0 0 144 0
131 0 0 0 0 137 0
132 0 0 0 0 0 129
133 0 0 0 0 0 123
134 0 0 0 0 148 0
135 0 0 0 0 0 147
136 0 0 0 0 0 121
137 0 0 0 0 0 131
138 0 0 0 0 0 124
139 0 0 0 0 0 155
140 0 0 0 0 0 99
141 0 0 0 0 0 117
142 0 0 0 0 153 0
143 0 0 0 0 401 0
144 0 0 0 0 0 130
145 0 0 0 0 0 149
146 0 0 0 0 0 156
147 0 0 0 0 135 0
148 0 0 0 0 0 134
149 0 0 0 0 145 0
150 0 0 0 0 0 427
151 0 0 0 0 214 0
152 0 0 0 0 161 0
153 0 0 0 0 0 142
154 0 0 0 0 160 0
155 0 0 0 0 139 0
156 0 0 0 0 146 0
157 0 0 0 0 165 0
158 0 0 0 0 168 0
159 0 0 0 0 174 0
160 0 0 0 0 0 154
161 0 0 0 0 0 152
162 0 0 0 0 0 235
163 0 0 0 0 0 173
164 0 0 0 0 0 184
165 0 0 0 0 0 157
166 0 0 0 0 0 172
167 0 0 0 0 0 186
168 0 0 0 0 0 158
169 0 0 0 0 0 182
170 0 0 0 0 0 171
171 0 0 0 0 170 0
172 0 0 0 0 166 0
173 0 0 0 0 163 0
174 0 0 0 0 0 159
175 0 0 0 0 0 201
176 0 0 0 0 0 45
177 0 0 0 0 183 0
178 0 0 0 0 226 0
179 0 0 0 0 0 198
180 0 0 0 0 209 0
181 0 0 0 0 0 190
182 0 0 0 0 169 0
183 0 0 0 0 0 177
184 0 0 0 0 164 0
185 0 0 0 0 0 197
186 0 0 0 0 167 0
187 0 0 0 0 195 0
188 0 0 0 0 0 192
189 0 0 0 0 194 0
190 0 0 0 0 181 0
191 0 0 0 0 196 0
192 0 0 0 0 188 0
193 0 0 0 0 0 205
194 0 0 0 0 0 189
195 0 0 0 0 0 187
196 0 0 0 0 0 191
197 0 0 0 0 185 0
198 0 0 0 0 179 0
199 0 0 0 0 0 200
200 0 0 0 0 199 0
201 0 0 0 0 175 0
202 0 0 0 0 247 0
203 0 0 0 0 207 0
204 0 0 0 0 220 0
205 0 0 0 0 193 0
206 0 0 0 0 0 211
207 0 0 0 0 0 203
208 0 0 0 0 0 218
209 0 0 0 0 0 180
210 0 0 0 0 0 216
211 0 0 0 0 206 0
212 0 0 0 0 0 217
213 0 0 0 0 219 0
214 0 0 0 0 0 151
215 0 0 0 0 222 0
216 0 0 0 0 210 0
217 0 0 0 0 212 0
218 0 0 0 0 208 0
219 0 0 0 0 0 213
220 0 0 0 0 0 204
221 0 0 0 0 232 0
222 0 0 0 0 0 215
223 0 0 0 0 229 0
224 0 0 0 0 0 269
225 0 0 0 0 0 240
226 0 0 0 0 0 178
227 0 0 0 0 406 0
228 0 0 0 0 242 0
229 0 0 0 0 0 223
230 0 0 0 0 268 0
231 0 0 0 0 234 0
232 0 0 0 0 0 221
233 0 0 0 0 238 0
234 0 0 0 0 0 231
235 0 0 0 0 162 0
236 0 0 0 0 0 255
237 0 0 0 0 249 0
238 0 0 0 0 0 233
239 0 0 0 0 0 363
240 0 0 0 0 225 0
241 0 0 0 0 273 0
242 0 0 0 0 0 228
243 0 0 0 0 244 0
244 0 0 0 0 0 243
245 0 0 0 0 257 0
246 0 0 0 0 259 0
247 0 0 0 0 0 202
248 0 0 0 0 261 0
249 0 0 0 0 0 237
250 0 0 0 0 308 0
251 0 0 0 0 0 252
252 0 0 0 0 251 0
253 0 0 0 0 265 0
254 0 0 0 0 0 264
255 0 0 0 0 236 0
256 0 0 0 0 0 271
257 0 0 0 0 0 245
258 0 0 0 0 260 0
259 0 0 0 0 0 246
260 0 0 0 0 0 258
261 0 0 0 0 0 248
262 0 0 0 0 263 0
263 0 0 0 0 0 262
264 0 0 0 0 254 0
265 0 0 0 0 0 253
266 0 0 0 0 0 277
267 0 0 0 0 335 0
268 0 0 0 0 0 230
269 0 0 0 0 224 0
270 0 0 0 0 0 274
271 0 0 0 0 256 0
272 0 0 0 0 298 0
273 0 0 0 0 0 241
274 0 0 0 0 270 0
275 0 0 0 0 351 0
276 0 0 0 0 0 334
277 0 0 0 0 266 0
278 0 0 0 0 304 0
279 0 0 0 0 0 292
280 0 0 0 0 290 0
281 0 0 0 0 0 282
282 0 0 0 0 281 0
283 0 0 0 0 313 0
284 0 0 0 0 0 286
285 0 0 0 0 296 0
286 0 0 0 0 284 0
287 0 0 0 0 0 320
288 0 0 0 0 316 0
289 0 0 0 0 323 0
290 0 0 0 0 0 280
291 0 0 0 0 309 0
292 0 0 0 0 279 0
293 0 0 0 0 353 0
294 0 0 0 0 312 0
295 0 0 0 0 0 365
296 0 0 0 0 0 285
297 0 0 0 0 0 326
298 0 0 0 0 0 272
299 0 0 0 0 341 0
300 0 0 0 0 0 303
301 0 0 0 0 0 422
302 0 0 0 0 0 328
303 0 0 0 0 300 0
304 0 0 0 0 0 278
305 0 0 0 0 0 33
306 0 0 0 0 330 0
307 0 0 0 0 315 0
308 0 0 0 0 0 250
309 0 0 0 0 0 291
310 0 0 0 0 0 325
311 0 0 0 0 0 331
312 0 0 0 0 0 294
313 0 0 0 0 0 283
314 0 0 0 0 0 321
315 0 0 0 0 0 307
316 0 0 0 0 0 288
317 0 0 0 0 0 318
318 0 0 0 0 317 0
319 0 0 0 0 324 0
320 0 0 0 0 287 0
321 0 0 0 0 314 0
322 0 0 0 0 329 0
323 0 0 0 0 0 289
324 0 0 0 0 0 319
325 0 0 0 0 310 0
326 0 0 0 0 297 0
327 0 0 0 0 0 346
328 0 0 0 0 302 0
329 0 0 0 0 0 322
330 0 0 0 0 0 306
331 0 0 0 0 311 0
332 0 0 0 0 354 0
333 0 0 0 0 0 338
334 0 0 0 0 276 0
335 0 0 0 0 0 267
336 0 0 0 0 0 339
337 0 0 0 0 0 357
338 0 0 0 0 333 0
339 0 0 0 0 336 0
340 0 0 0 0 0 344
341 0 0 0 0 0 299
342 0 0 0 0 0 398
343 0 0 0 0 0 350
344 0 0 0 0 340 0
345 0 0 0 0 364 0
346 0 0 0 0 327 0
347 0 0 0 0 366 0
348 0 0 0 0 361 0
349 0 0 0 0 0 352
350 0 0 0 0 343 0
351 0 0 0 0 0 275
352 0 0 0 0 349 0
353 0 0 0 0 0 293
354 0 0 0 0 0 332
355 0 0 0 0 376 0
356 0 0 0 0 0 404
357 0 0 0 0 337 0
358 0 0 0 0 381 0
359 0 0 0 0 360 0
360 0 0 0 0 0 359
361 0 0 0 0 0 348
362 0 0 0 0 39 0
363 0 0 0 0 239 0
364 0 0 0 0 0 345
365 0 0 0 0 295 0
366 0 0 0 0 0 347
367 0 0 0 0 420 0
368 0 0 0 0 374 0
369 0 0 0 0 0 382
370 0 0 0 0 371 0
371 0 0 0 0 0 370
372 0 0 0 0 428 0
373 0 0 0 0 0 379
374 0 0 0 0 0 368
375 0 0 0 0 0 443
376 0 0 0 0 0 355
377 0 0 0 0 0 389
378 0 0 0 0 0 472
379 0 0 0 0 373 0
380 0 0 0 0 0 387
381 0 0 0 0 0 358
382 0 0 0 0 369 0
383 0 0 0 0 0 432
384 0 0 0 0 395 0
385 0 0 0 0 25 0
386 0 0 0 0 407 0
387 0 0 0 0 380 0
388 0 0 0 0 0 403
389 0 0 0 0 377 0
390 0 0 0 0 0 391
391 0 0 0 0 390 0
392 0 0 0 0 399 0
393 0 0 0 0 408 0
394 0 0 0 0 0 489
395 0 0 0 0 0 384
396 0 0 0 0 400 0
397 0 0 0 0 0 458
398 0 0 0 0 342 0
399 0 0 0 0 0 392
400 0 0 0 0 0 396
401 0 0 0 0 0 143
402 0 0 0 0 0 441
403 0 0 0 0 388 0
404 0 0 0 0 356 0
405 0 0 0 0 416 0
406 0 0 0 0 0 227
407 0 0 0 0 0 386
408 0 0 0 0 0 393
409 0 0 0 0 0 457
410 0 0 0 0 0 419
411 0 0 0 0 0 461
412 0 0 0 0 0 414
413 0 0 0 0 0 447
414 0 0 0 0 412 0
415 0 0 0 0 0 437
416 0 0 0 0 0 405
417 0 0 0 0 0 418
418 0 0 0 0 417 0
419 0 0 0 0 410 0
420 0 0 0 0 0 367
421 0 0 0 0 426 0
422 0 0 0 0 301 0
423 0 0 0 0 0 429
424 0 0 0 0 0 431
425 0 0 0 0 0 468
426 0 0 0 0 0 421
427 0 0 0 0 150 0
428 0 0 0 0 0 372
429 0 0 0 0 423 0
430 0 0 0 0 0 493
431 0 0 0 0 424 0
432 0 0 0 0 383 0
433 0 0 0 0 0 445
434 0 0 0 0 448 0
435 0 0 0 0 446 0
436 0 0 0 0 0 450
437 0 0 0 0 415 0
438 0 0 0 0 449 0
439 0 0 0 0 0 451
440 0 0 0 0 0 454
441 0 0 0 0 402 0
442 0 0 0 0 455 0
443 0 0 0 0 375 0
444 0 0 0 0 0 460
445 0 0 0 0 433 0
446 0 0 0 0 0 435
447 0 0 0 0 413 0
448 0 0 0 0 0 434
449 0 0 0 0 0 438
450 0 0 0 0 436 0
451 0 0 0 0 439 0
452 0 0 0 0 0 453
453 0 0 0 0 452 0
454 0 0 0 0 440 0
455 0 0 0 0 0 442
456 0 0 0 0 490 0
457 0 0 0 0 409 0
458 0 0 0 0 397 0
459 0 0 0 0 0 471
460 0 0 0 0 444 0
461 0 0 0 0 411 0
462 0 0 0 0 464 0
463 0 0 0 0 466 0
464 0 0 0 0 0 462
465 0 0 0 0 0 470
466 0 0 0 0 0 463
467 0 0 0 0 469 0
468 0 0 0 0 425 0
469 0 0 0 0 0 467
470 0 0 0 0 465 0
471 0 0 0 0 459 0
472 0 0 0 0 378 0
473 0 0 0 0 478 0
474 0 0 0 0 475 0
475 0 0 0 0 0 474
476 0 0 0 0 0 480
477 0 0 0 0 486 0
478 0 0 0 0 0 473
479 0 0 0 0 487 0
480 0 0 0 0 476 0
481 0 0 0 0 483 0
482 0 0 0 0 485 0
483 0 0 0 0 0 481
484 0 0 0 0 488 0
485 0 0 0 0 0 482
486 0 0 0 0 0 477
487 0 0 0 0 0 479
488 0 0 0 0 0 484
489 0 0 0 0 394 0
490 0 0 0 0 0 456
491 0 0 0 0 0 492
492 0 0 0 0 491 0
493 0 0 0 0 430 0
DEPOT_SECTION
1 
-1
EOF
